c FILE			: sample1.gr
c No. of vertices	: 32
c No. of directed edges	: 151
c Max. weight		: 32
c Min. weight		: 0
c A directed arc from u to v of weight w
c is represented below as ' a  u  v  w '
p sp 32 151
a 1 2 2
a 1 2 13
a 1 2 22
a 1 29 24
a 1 20 13
a 2 7 27
a 2 7 22
a 2 26 5
a 2 26 7
a 2 14 7
a 3 7 7
a 4 9 28
a 4 9 9
a 4 9 26
a 4 27 6
a 4 3 29
a 4 3 13
a 5 32 27
a 5 32 5
a 5 17 15
a 5 17 22
a 5 11 31
a 5 11 16
a 5 9 14
a 6 10 26
a 6 10 15
a 6 10 2
a 6 28 14
a 6 28 11
a 6 28 7
a 6 19 21
a 7 2 9
a 7 2 29
a 7 2 3
a 7 18 13
a 8 30 7
a 8 30 14
a 8 14 14
a 8 11 3
a 9 13 29
a 9 13 30
a 9 4 3
a 9 4 0
a 9 27 30
a 9 27 14
a 9 30 25
a 10 28 20
a 10 28 23
a 10 28 13
a 10 6 17
a 10 6 7
a 10 17 17
a 10 17 10
a 11 3 10
a 11 3 24
a 11 7 16
a 12 23 30
a 12 23 17
a 12 11 0
a 12 11 17
a 12 2 24
a 12 21 7
a 13 9 1
a 13 9 30
a 13 4 3
a 13 4 6
a 13 31 25
a 14 20 8
a 14 20 17
a 14 15 31
a 14 15 0
a 14 15 9
a 14 5 5
a 14 12 25
a 15 20 19
a 15 20 13
a 15 14 27
a 15 14 14
a 15 32 26
a 15 7 14
a 17 5 30
a 17 5 30
a 17 32 16
a 17 32 13
a 17 23 17
a 17 1 29
a 17 1 25
a 17 18 1
a 18 21 24
a 18 21 29
a 18 28 27
a 18 28 5
a 18 25 18
a 18 25 12
a 19 25 26
a 19 25 6
a 19 13 25
a 19 27 9
a 20 14 10
a 20 14 6
a 20 15 4
a 20 15 31
a 20 15 24
a 21 18 20
a 21 18 12
a 21 18 11
a 21 10 18
a 22 31 20
a 22 31 21
a 22 27 0
a 22 27 10
a 22 8 5
a 23 1 28
a 23 1 28
a 23 7 13
a 23 13 23
a 24 14 10
a 24 14 10
a 25 19 28
a 25 19 30
a 25 19 25
a 25 9 8
a 26 21 28
a 27 31 24
a 27 31 6
a 27 16 26
a 27 15 29
a 28 10 22
a 28 10 1
a 28 6 9
a 28 6 17
a 28 25 26
a 29 18 5
a 29 28 17
a 30 8 25
a 30 8 31
a 31 27 6
a 31 27 22
a 31 27 6
a 31 22 26
a 31 22 19
a 31 22 27
a 31 8 28
a 31 8 21
a 32 5 17
a 32 5 21
a 32 17 15
a 32 17 8
a 32 12 13
a 32 11 19
a 32 22 18
